# 43902
param n := 25;
param s := 1;
set E :=  (0,11) (1,2) (1,4) (1,20) (2,7) (2,15) (3,13) (4,10) (4,14) (4,21) (4,24) (5,13) (6,21) (6,23) (7,20) (8,15) (8,19) (9,10) (9,13) (9,17) (9,18) (9,22) (10,11) (11,16) (12,16) (12,18) (16,18) (17,23);
